100 1306306586
71 14 96 66 94 65 60 2 52 85 34 45 44 77 28 38 50 12 88 29 72 53 17 51 23 76 80 37 89 31 33 11 10 73 13 100 5 86 83 9 93 91 56 3 26 47 99 58 62 82 79 49 15 32 18 81 1 36 48 20 74 70 21 39 75 59 90 7 87 8 46 54 19 63 64 27 35 92 95 57 84 43 98 4 41 6 67 61 42 16 55 78 69 30 24 40 25 97 22 68 
